# Objective value = 38
WA1n 0
WA1p 0
WA2n 0
WA2p 1
WB1n 0
WB1p 0
WB2n 0
WB2p 1
WC1n 0
WC1p 0
WC2n 0
WC2p 1
WD1n 0
WD1p 0
WD2n 0
WD2p 1
WE1n 0
WE1p 0
WE2n 0
WE2p 1
WF1n 0
WF1p 0
WF2n 0
WF2p 1
WG1n 3
WG1p 0
WH1n 3
WH1p 0
WI1n 3
WI1p 0
WJ1n 3
WJ1p 0
WK1n 3
WK1p 0
WL1n 3
WL1p 0
WM1n 3
WM1p 0
WN1n 3
WN1p 0
WT1n 0
WT1p 0
WT2n 0
WT2p 1
5 7
a 0
b 1
c 0
d 1
e 0
f 1
g 0
h 1
i 0
j 1
k 0
l 1
m 0
n 0
o 0
p 0
q 0
r 0
s 0
t 0
u 0
v 1
